(set-logic HORN)
(set-info :source |
    Benchmark: C_VC
    Output by Princess (http://www.philipp.ruemmer.org/princess.shtml)
|)
(set-info :status sat)
(declare-heap Heap Addr HeapObject
 defObj
 ((HeapObject 0)) (
  (
   (O_Int (getInt Int))
   (O_UInt (getUInt Int))
   (O_Addr (getAddr Addr))
   (defObj)
  )
))
(declare-fun inv_main15 (Heap Int Int AddrRange Int Int Int) Bool)
(declare-fun inv_main18 (Heap Int Int AddrRange Int Int) Bool)
(declare-fun inv_main22 (Heap Int Int AddrRange Int Int Int) Bool)
(declare-fun inv_main31 (Heap Int Int AddrRange Int Int Int Int Int) Bool)
(declare-fun inv_main4 (Heap Int Int AddrRange Int) Bool)
(assert (forall ((var0 Int) (var1 AddrRange) (var2 Int) (var3 Int) (var4 Int) (var5 Heap) (var6 Int) (var7 Int) (var8 Heap)) (or (not (and (and (and (= var8 emptyHeap) (= var7 0)) (= var6 0)) (and (and (and (= var5 (newBatchHeap (batchAlloc emptyHeap (O_Int var4) 100000))) (= var3 var7)) (= var2 var6)) (= var1 (newAddrRange (batchAlloc emptyHeap (O_Int var4) 100000)))))) (inv_main4 var5 var3 var2 var1 var0))))
(assert (forall ((var0 Int) (var1 Int) (var2 AddrRange) (var3 Int) (var4 Int) (var5 Heap) (var6 Int) (var7 Int) (var8 Int) (var9 Int) (var10 Int) (var11 AddrRange) (var12 Int) (var13 Int) (var14 Heap)) (or (not (and (inv_main22 var14 var13 var12 var11 var10 var9 var8) (and (and (not (= var7 var6)) (is-O_Int (read var14 (nthAddrRange var11 var8)))) (and (and (and (and (and (and (and (= var5 var14) (= var4 var13)) (= var3 var12)) (= var2 var11)) (= var6 var10)) (= var1 var9)) (= var0 var8)) (= var7 (getInt (read var14 (nthAddrRange var11 var8)))))))) (inv_main22 var5 var4 var3 var2 var6 var1 (+ var0 1)))))
(assert (forall ((var0 Int) (var1 Int) (var2 AddrRange) (var3 Int) (var4 Int) (var5 Heap) (var6 Int) (var7 Int) (var8 AddrRange) (var9 Int) (var10 Int) (var11 Heap)) (or (not (and (inv_main18 var11 var10 var9 var8 var7 var6) (and (and (is-O_Int (read var11 (nthAddrRange var8 var6))) (is-O_Int (read var11 (nthAddrRange var8 var6)))) (and (and (and (and (and (= var5 (write var11 (nthAddrRange var8 var6) (O_Int var7))) (= var4 var10)) (= var3 var9)) (= var2 var8)) (= var1 var7)) (= var0 var6))))) (inv_main22 var5 var4 var3 var2 var1 var0 0))))
(assert (forall ((var0 Int) (var1 AddrRange) (var2 Int) (var3 Int) (var4 Int) (var5 Heap) (var6 Int) (var7 Int) (var8 Int) (var9 Int) (var10 Int) (var11 AddrRange) (var12 Int) (var13 Int) (var14 Heap)) (or (not (and (inv_main15 var14 var13 var12 var11 var10 var9 var8) (and (<= 0 (+ (+ 100000 (* (- 1) var7)) (- 1))) (and (<= 0 var7) (and (not (<= 0 (+ (+ 100000 (* (- 1) (+ var6 1))) (- 1)))) (and (and (is-O_Int (read var14 (nthAddrRange var11 var8))) (is-O_Int (read var14 (nthAddrRange var11 var8)))) (and (and (and (and (and (and (= var5 (write var14 (nthAddrRange var11 var8) (O_Int var4))) (= var3 var13)) (= var2 var12)) (= var1 var11)) (= var0 var10)) (= var7 var9)) (= var6 var8)))))))) (inv_main18 var5 var3 var2 var1 var0 var7))))
(assert (forall ((var0 Int) (var1 Int) (var2 AddrRange) (var3 Int) (var4 Int) (var5 Int) (var6 Heap) (var7 Int) (var8 Int) (var9 Int) (var10 Int) (var11 AddrRange) (var12 Int) (var13 Int) (var14 Heap)) (or (not (and (inv_main15 var14 var13 var12 var11 var10 var9 var8) (and (<= 0 (+ (+ 100000 (* (- 1) (+ var7 1))) (- 1))) (and (and (is-O_Int (read var14 (nthAddrRange var11 var8))) (is-O_Int (read var14 (nthAddrRange var11 var8)))) (and (and (and (and (and (and (= var6 (write var14 (nthAddrRange var11 var8) (O_Int var5))) (= var4 var13)) (= var3 var12)) (= var2 var11)) (= var1 var10)) (= var0 var9)) (= var7 var8)))))) (inv_main15 var6 var4 var3 var2 var1 var0 (+ var7 1)))))
(assert (forall ((var0 Int) (var1 Int) (var2 Int) (var3 AddrRange) (var4 Int) (var5 Int) (var6 Heap)) (or (not (inv_main4 var6 var5 var4 var3 var2)) (inv_main15 var6 var5 var4 var3 var1 var0 0))))
(assert (forall ((var0 Int) (var1 Int) (var2 Int) (var3 Int) (var4 Int) (var5 Int) (var6 Int) (var7 AddrRange) (var8 AddrRange) (var9 Int) (var10 Int) (var11 Int) (var12 Int) (var13 Heap) (var14 Heap) (var15 Int) (var16 Int) (var17 Int) (var18 Int) (var19 AddrRange) (var20 Int) (var21 Int) (var22 Heap)) (or (not (and (inv_main22 var22 var21 var20 var19 var18 var17 var16) (and (and (= var15 0) (and (and (and (and (and (and (and (= var14 var13) (= var12 var11)) (= var10 var9)) (= var8 var7)) (= var6 var5)) (= var4 var3)) (= var2 var1)) (or (and (<= 0 (+ var3 (* (- 1) var1))) (= var15 1)) (and (not (<= 0 (+ var3 (* (- 1) var1)))) (= var15 0))))) (and (and (= var0 var5) (is-O_Int (read var22 (nthAddrRange var19 var16)))) (and (and (and (and (and (and (and (= var13 var22) (= var11 var21)) (= var9 var20)) (= var7 var19)) (= var5 var18)) (= var3 var17)) (= var1 var16)) (= var0 (getInt (read var22 (nthAddrRange var19 var16))))))))) (inv_main31 var14 var12 var10 var8 var6 var4 var2 var15 var15))))
(assert (forall ((var0 Int) (var1 Int) (var2 Int) (var3 AddrRange) (var4 Int) (var5 Int) (var6 Heap)) (not (and (inv_main15 var6 var5 var4 var3 var2 var1 var0) (not (is-O_Int (read var6 (nthAddrRange var3 var0))))))))
(assert (forall ((var0 Int) (var1 Int) (var2 Int) (var3 AddrRange) (var4 Int) (var5 Int) (var6 Heap)) (not (and (inv_main15 var6 var5 var4 var3 var2 var1 var0) (and (is-O_Int (read var6 (nthAddrRange var3 var0))) (not (within var3 (nthAddrRange var3 var0))))))))
(assert (forall ((var0 Int) (var1 Int) (var2 Int) (var3 AddrRange) (var4 Int) (var5 Int) (var6 Heap)) (not (and (inv_main15 var6 var5 var4 var3 var2 var1 var0) (and (is-O_Int (read var6 (nthAddrRange var3 var0))) (not (is-O_Int (read var6 (nthAddrRange var3 var0)))))))))
(assert (forall ((var0 Int) (var1 Int) (var2 AddrRange) (var3 Int) (var4 Int) (var5 Heap)) (not (and (inv_main18 var5 var4 var3 var2 var1 var0) (not (is-O_Int (read var5 (nthAddrRange var2 var0))))))))
(assert (forall ((var0 Int) (var1 Int) (var2 AddrRange) (var3 Int) (var4 Int) (var5 Heap)) (not (and (inv_main18 var5 var4 var3 var2 var1 var0) (and (is-O_Int (read var5 (nthAddrRange var2 var0))) (not (within var2 (nthAddrRange var2 var0))))))))
(assert (forall ((var0 Int) (var1 Int) (var2 AddrRange) (var3 Int) (var4 Int) (var5 Heap)) (not (and (inv_main18 var5 var4 var3 var2 var1 var0) (and (is-O_Int (read var5 (nthAddrRange var2 var0))) (not (is-O_Int (read var5 (nthAddrRange var2 var0)))))))))
(assert (forall ((var0 Int) (var1 Int) (var2 Int) (var3 AddrRange) (var4 Int) (var5 Int) (var6 Heap)) (not (and (inv_main22 var6 var5 var4 var3 var2 var1 var0) (not (is-O_Int (read var6 (nthAddrRange var3 var0))))))))
(assert (forall ((var0 Int) (var1 Int) (var2 Int) (var3 AddrRange) (var4 Int) (var5 Int) (var6 Heap)) (not (and (inv_main22 var6 var5 var4 var3 var2 var1 var0) (and (is-O_Int (read var6 (nthAddrRange var3 var0))) (not (within var3 (nthAddrRange var3 var0))))))))
(assert (forall ((var0 Int) (var1 Int) (var2 Int) (var3 Int) (var4 Int) (var5 AddrRange) (var6 Int) (var7 Int) (var8 Heap)) (not (inv_main31 var8 var7 var6 var5 var4 var3 var2 var1 var0))))
(check-sat)
